301 5
10 10 10 10 10 

0 0 0 0 0 0 5 2 34 46 78 110 
0 0 0 0 0 0 7 3 5 7 8 13 31 32 
5 4 0 2 0 4 4 24 12 6 4 
10 6 0 4 0 4 3 23 17 9 
2 8 0 9 0 10 5 30 29 25 19 10 
1 7 0 7 0 10 4 27 26 19 10 
2 4 0 9 0 8 4 25 24 19 10 
3 9 0 3 0 7 5 28 25 22 14 12 
4 8 0 8 0 10 2 19 10 
9 5 0 6 0 7 3 21 16 11 
5 9 0 10 0 7 1 14 
1 2 0 9 0 7 2 23 19 
3 10 0 6 0 10 2 26 24 
1 8 0 7 0 5 1 15 
4 10 0 7 0 6 1 18 
2 8 0 6 0 6 1 20 
8 9 0 9 0 10 1 22 
3 10 0 10 0 8 1 33 
6 9 0 10 0 10 1 33 
3 5 0 10 0 8 1 33 
8 7 0 8 0 5 1 33 
3 5 0 10 0 6 1 33 
1 10 0 7 0 7 1 33 
10 7 0 10 0 6 1 33 
9 4 0 6 0 6 1 33 
2 7 0 5 0 7 1 33 
8 10 0 7 0 10 1 33 
7 9 0 8 0 10 1 33 
8 6 0 9 0 10 1 33 
8 10 0 10 0 10 1 33 
1 10 0 7 0 7 1 33 
4 9 0 6 0 4 1 33 
0 0 0 0 0 0 1 278 
0 0 0 0 0 0 6 35 36 41 42 43 44 
6 0 0 2 0 0 2 40 37 
8 0 0 10 0 0 1 37 
4 0 0 10 0 0 2 39 38 
2 0 0 8 0 0 1 45 
7 0 0 4 0 0 1 45 
1 0 0 8 0 0 1 45 
9 0 0 10 0 0 1 45 
1 0 0 6 0 0 1 45 
5 0 0 10 0 0 1 45 
2 0 0 7 0 0 1 45 
0 0 0 0 0 0 5 142 154 176 198 220 
0 0 0 0 0 0 6 47 48 49 50 51 62 
7 4 0 0 7 3 4 64 54 53 52 
2 9 0 0 9 9 5 64 60 58 53 52 
9 4 0 0 7 4 3 58 53 52 
5 7 0 0 6 10 3 63 54 52 
9 7 0 0 7 10 4 66 63 59 54 
9 8 0 0 6 4 3 59 56 55 
2 6 0 0 5 4 2 63 57 
9 9 0 0 10 7 2 60 58 
7 8 0 0 7 10 2 67 61 
4 6 0 0 8 5 2 67 61 
6 10 0 0 10 8 2 67 61 
2 5 0 0 6 7 1 61 
1 4 0 0 5 8 1 61 
2 9 0 0 7 3 1 61 
9 8 0 0 10 7 6 76 75 74 71 70 65 
8 4 0 0 10 10 4 75 71 70 65 
9 6 0 0 6 4 2 74 65 
4 10 0 0 6 10 4 75 74 73 70 
8 10 0 0 7 7 2 72 68 
1 9 0 0 6 10 1 67 
9 5 0 0 7 9 3 76 74 72 
9 6 0 0 10 10 1 69 
7 10 0 0 10 7 1 73 
5 9 0 0 9 7 1 72 
5 7 0 0 9 7 1 72 
6 10 0 0 9 10 1 77 
8 7 0 0 5 10 1 77 
9 10 0 0 9 9 1 77 
7 8 0 0 6 6 1 77 
8 10 0 0 6 10 1 77 
0 0 0 0 0 0 1 278 
0 0 0 0 0 0 6 79 80 81 82 84 108 
2 0 0 6 6 3 4 91 86 85 83 
7 0 0 10 4 4 5 107 98 89 88 86 
2 0 0 4 10 4 5 98 97 91 89 87 
7 0 0 8 3 5 5 105 101 97 89 87 
8 0 0 4 10 7 4 101 98 97 87 
9 0 0 8 9 7 5 106 102 92 91 90 
2 0 0 6 10 10 3 102 90 88 
4 0 0 7 8 6 5 102 101 97 96 92 
2 0 0 10 7 10 2 102 88 
1 0 0 8 3 9 3 104 96 92 
5 0 0 10 7 8 3 103 93 92 
4 0 0 6 7 10 3 101 96 94 
9 0 0 7 10 9 2 101 95 
9 0 0 7 6 5 1 94 
6 0 0 9 8 7 1 94 
5 0 0 6 9 10 1 95 
3 0 0 10 9 5 1 99 
6 0 0 7 10 7 1 100 
9 0 0 10 7 5 1 103 
6 0 0 7 6 5 1 103 
7 0 0 6 6 7 1 109 
8 0 0 10 8 6 1 109 
3 0 0 7 7 8 1 109 
6 0 0 9 7 10 1 109 
4 0 0 8 10 10 1 109 
7 0 0 4 10 8 1 109 
5 0 0 10 7 10 1 109 
1 0 0 7 7 10 1 109 
2 0 0 8 10 10 1 109 
8 0 0 6 4 10 1 109 
0 0 0 0 0 0 1 278 
0 0 0 0 0 0 6 111 112 113 115 119 140 
4 0 2 5 0 5 4 122 117 116 114 
4 0 9 9 0 8 6 136 135 134 122 121 118 
7 0 9 10 0 10 6 139 136 133 131 128 117 
9 0 5 8 0 8 4 135 131 128 118 
7 0 9 3 0 7 4 138 136 121 118 
3 0 10 6 0 10 3 132 123 120 
2 0 4 9 0 9 5 135 134 132 127 124 
9 0 10 10 0 6 2 132 120 
1 0 6 5 0 9 3 137 123 122 
8 0 8 9 0 7 3 133 127 124 
9 0 9 7 0 8 1 124 
10 0 8 9 0 7 2 131 126 
6 0 8 6 0 7 2 131 127 
3 0 6 7 0 8 1 125 
3 0 6 5 0 5 1 126 
3 0 7 7 0 10 1 129 
2 0 9 10 0 6 1 130 
9 0 6 8 0 8 1 134 
2 0 8 7 0 10 1 141 
6 0 10 5 0 5 1 141 
8 0 7 7 0 6 1 141 
3 0 9 5 0 4 1 141 
9 0 6 10 0 10 1 141 
2 0 8 4 0 10 1 141 
6 0 9 8 0 9 1 141 
2 0 10 6 0 7 1 141 
8 0 8 10 0 2 1 141 
1 0 8 10 0 9 1 141 
3 0 7 10 0 5 1 141 
7 0 4 10 0 10 1 141 
0 0 0 0 0 0 1 278 
0 0 0 0 0 0 4 143 144 146 148 
2 2 0 0 0 0 3 152 147 145 
5 9 0 0 0 0 2 152 145 
6 10 0 0 0 0 3 151 150 149 
1 8 0 0 0 0 2 151 149 
6 8 0 0 0 0 1 149 
10 7 0 0 0 0 1 150 
9 6 0 0 0 0 1 153 
1 8 0 0 0 0 1 153 
6 8 0 0 0 0 1 153 
7 9 0 0 0 0 1 153 
0 0 0 0 0 0 3 242 254 266 
0 0 0 0 0 0 7 155 156 157 158 159 161 165 
3 0 3 0 0 5 5 174 171 170 167 162 
8 0 5 0 0 9 4 172 171 170 160 
6 0 10 0 0 8 5 173 172 171 167 163 
6 0 3 0 0 8 4 172 170 167 162 
8 0 9 0 0 10 4 171 170 167 164 
5 0 9 0 0 5 4 173 169 167 166 
3 0 6 0 0 8 4 172 171 170 168 
1 0 10 0 0 8 1 163 
2 0 6 0 0 5 2 169 166 
8 0 7 0 0 10 2 169 166 
6 0 8 0 0 6 2 169 166 
4 0 5 0 0 10 1 168 
9 0 8 0 0 10 1 168 
3 0 9 0 0 4 1 175 
6 0 10 0 0 7 1 175 
2 0 6 0 0 7 1 175 
7 0 8 0 0 8 1 175 
9 0 8 0 0 6 1 175 
9 0 10 0 0 6 1 175 
6 0 10 0 0 10 1 175 
0 0 0 0 0 0 1 278 
0 0 0 0 0 0 5 177 178 179 180 184 
2 2 0 2 0 0 4 190 187 185 181 
3 7 0 9 0 0 4 196 187 185 182 
10 10 0 5 0 0 5 195 190 187 185 183 
7 7 0 10 0 0 4 195 190 185 183 
5 4 0 6 0 0 3 196 195 183 
5 2 0 9 0 0 2 195 183 
9 10 0 9 0 0 4 193 189 188 186 
7 6 0 6 0 0 4 196 195 192 187 
4 6 0 7 0 0 3 193 188 186 
9 5 0 7 0 0 2 194 192 
6 10 0 8 0 0 2 193 191 
3 9 0 9 0 0 1 191 
8 10 0 10 0 0 1 191 
7 9 0 10 0 0 1 192 
4 9 0 7 0 0 1 197 
8 10 0 9 0 0 1 197 
6 10 0 4 0 0 1 197 
6 7 0 6 0 0 1 197 
6 10 0 8 0 0 1 197 
2 7 0 9 0 0 1 197 
0 0 0 0 0 0 1 278 
0 0 0 0 0 0 4 199 200 201 202 
3 0 7 0 3 0 5 210 209 207 206 205 
8 0 2 0 4 0 4 209 207 205 203 
7 0 4 0 8 0 4 209 205 204 203 
4 0 4 0 10 0 3 206 204 203 
4 0 8 0 10 0 4 212 211 210 208 
4 0 8 0 7 0 4 212 211 210 208 
6 0 10 0 10 0 3 212 211 208 
9 0 8 0 5 0 3 212 211 208 
1 0 10 0 10 0 2 211 208 
7 0 9 0 8 0 5 218 217 215 214 213 
10 0 7 0 10 0 5 218 217 215 214 213 
10 0 8 0 10 0 4 217 215 214 213 
6 0 10 0 6 0 3 218 217 213 
4 0 10 0 10 0 3 218 217 216 
8 0 10 0 4 0 1 216 
4 0 8 0 10 0 1 216 
10 0 7 0 5 0 1 216 
9 0 9 0 9 0 1 219 
9 0 7 0 6 0 1 219 
6 0 4 0 5 0 1 219 
0 0 0 0 0 0 1 278 
0 0 0 0 0 0 5 221 222 224 225 226 
8 3 0 0 0 2 2 230 223 
2 7 0 0 0 10 2 229 227 
2 6 0 0 0 6 4 240 233 231 228 
6 8 0 0 0 9 4 240 232 231 230 
2 10 0 0 0 6 2 230 228 
1 10 0 0 0 9 5 240 238 236 233 232 
9 9 0 0 0 6 4 240 238 232 231 
4 7 0 0 0 7 4 238 236 235 232 
7 8 0 0 0 6 3 238 233 231 
5 9 0 0 0 6 3 238 236 233 
3 8 0 0 0 10 4 237 236 235 234 
6 7 0 0 0 10 3 239 237 234 
6 6 0 0 0 9 2 235 234 
9 5 0 0 0 8 1 241 
2 7 0 0 0 5 1 241 
6 9 0 0 0 5 1 241 
8 7 0 0 0 10 1 241 
9 4 0 0 0 10 1 241 
3 10 0 0 0 10 1 241 
9 10 0 0 0 6 1 241 
0 0 0 0 0 0 1 278 
0 0 0 0 0 0 6 243 244 245 246 247 248 
7 0 0 0 2 0 2 251 250 
5 0 0 0 9 0 2 250 249 
10 0 0 0 10 0 2 250 249 
6 0 0 0 9 0 2 250 249 
9 0 0 0 9 0 1 251 
3 0 0 0 5 0 1 249 
2 0 0 0 7 0 1 252 
9 0 0 0 6 0 1 252 
5 0 0 0 8 0 1 252 
3 0 0 0 10 0 1 253 
0 0 0 0 0 0 1 278 
0 0 0 0 0 0 5 255 257 258 263 264 
5 0 0 0 0 4 1 256 
9 0 0 0 0 10 4 262 261 260 259 
4 0 0 0 0 7 4 262 261 260 259 
10 0 0 0 0 6 1 259 
7 0 0 0 0 10 1 265 
9 0 0 0 0 10 1 265 
10 0 0 0 0 5 1 265 
4 0 0 0 0 6 1 265 
4 0 0 0 0 7 1 265 
9 0 0 0 0 10 1 265 
0 0 0 0 0 0 1 278 
0 0 0 0 0 0 4 267 268 269 276 
3 0 0 0 3 0 3 275 272 271 
3 0 0 0 5 0 3 275 272 270 
2 0 0 0 8 0 3 275 273 271 
8 0 0 0 6 0 2 274 273 
5 0 0 0 7 0 1 274 
9 0 0 0 7 0 1 273 
4 0 0 0 10 0 1 277 
4 0 0 0 9 0 1 277 
4 0 0 0 10 0 1 277 
2 0 0 0 10 0 1 277 
0 0 0 0 0 0 1 278 
0 0 0 0 0 0 5 279 280 281 282 288 
9 0 0 0 0 1 3 286 285 283 
1 0 0 0 0 8 3 286 285 283 
8 0 0 0 0 10 3 287 286 284 
3 0 0 0 0 10 2 285 284 
3 0 0 0 0 7 1 284 
7 0 0 0 0 6 1 289 
10 0 0 0 0 7 1 289 
4 0 0 0 0 9 1 289 
2 0 0 0 0 10 1 289 
3 0 0 0 0 7 1 289 
0 0 0 0 0 0 1 290 
0 0 0 0 0 0 3 291 292 295 
4 0 2 0 0 0 4 300 299 296 293 
7 0 5 0 0 0 2 298 294 
8 0 7 0 0 0 2 298 297 
3 0 10 0 0 0 2 297 296 
5 0 9 0 0 0 1 296 
3 0 8 0 0 0 1 301 
2 0 7 0 0 0 1 301 
4 0 8 0 0 0 1 301 
5 0 9 0 0 0 1 301 
3 0 10 0 0 0 1 301 
0 0 0 0 0 0 0 
